************************************************************************
file with basedata            : n/a
initial value random generator: n/a
************************************************************************
projects                      :  1
jobs (incl. supersource/sink ):  32
horizon                       :  157
RESOURCES
  - renewable                 :  4   R
  - nonrenewable              :  0   N
  - doubly constrained        :  0   D
************************************************************************
PROJECT INFORMATION:
pronr.  #jobs rel.date duedate tardcost  MPM-Time
    1     30      0       48       17       48
************************************************************************
PRECEDENCE RELATIONS:
jobnr.    #modes  #successors   successors
   1        1          3           2   3   4
   2        1          2           5  17
   3        1          3           6  12  17
   4        1          3           9  13  17
   5        1          3           7  14  16
   6        1          3           8  10  11
   7        1          3           9  11  24
   8        1          3          13  18  20
   9        1          3          18  23  25
  10        1          3          14  16  21
  11        1          2          13  25
  12        1          3          15  19  23
  13        1          3          15  28  31
  14        1          3          15  19  22
  15        1          2          29  30
  16        1          2          20  27
  17        1          3          18  20  23
  18        1          3          19  21  26
  19        1          1          31
  20        1          2          24  26
  21        1          2          27  31
  22        1          2          24  25
  23        1          1          28
  24        1          1          29
  25        1          2          26  27
  26        1          1          30
  27        1          2          28  30
  28        1          1          29
  29        1          1          32
  30        1          1          32
  31        1          1          32
  32        1          0        
************************************************************************
REQUESTS/DURATIONS:
jobnr. mode duration  R 1  R 2  R 3  R 4
------------------------------------------------------------------------
  1      1     0    
  2      1     4       9   9   9   9
                       1   1   1   1
                       3   3   3   3
                       8   8   8   8
  3      1     4       0  10  10  10
                       0   4   4   4
                       0   5   5   5
                       0  10  10  10
  4      1     1       8
                       9
                       9
                      10
  5      1     3       1   1   1
                       2   2   2
                       9   9   9
                       8   8   8
  6      1     5       2   2   2   2   2
                       2   2   2   2   2
                       8   8   8   8   8
                       5   5   5   5   5
  7      1     3       1   1   1
                       1   1   1
                       4   4   4
                       5   5   5
  8      1     1       4
                      10
                       9
                       4
  9      1     5       8   8   8   0   8
                      10  10  10   0  10
                       4   4   4   0   4
                       4   4   4   0   4
 10      1     3       2   2   0
                       2   2   0
                       3   3   0
                       9   9   0
 11      1     1       0
                       0
                       0
                       0
 12      1     8       0   3   3   0   0   3   3   3
                       0   3   3   0   0   3   3   3
                       0   1   1   0   0   1   1   1
                       0  10  10   0   0  10  10  10
 13      1     6       9   9   9   9   9   9
                       8   8   8   8   8   8
                       1   1   1   1   1   1
                       1   1   1   1   1   1
 14      1     5       2   2   2   0   2
                       1   1   1   0   1
                       7   7   7   0   7
                       8   8   8   0   8
 15      1     8       2   2   2   0   2   2   2   2
                       3   3   3   0   3   3   3   3
                      10  10  10   0  10  10  10  10
                       4   4   4   0   4   4   4   4
 16      1     3       5   5   5
                       8   8   8
                       3   3   3
                       2   2   2
 17      1     5       7   0   7   0   7
                       5   0   5   0   5
                       3   0   3   0   3
                       6   0   6   0   6
 18      1     2       9   0
                       4   0
                       4   0
                       6   0
 19      1    10       3   3   0   3   0   3   3   3   3   3
                       4   4   0   4   0   4   4   4   4   4
                       6   6   0   6   0   6   6   6   6   6
                       1   1   0   1   0   1   1   1   1   1
 20      1     9       0   0   1   1   1   1   0   1   0
                       0   0  10  10  10  10   0  10   0
                       0   0   3   3   3   3   0   3   0
                       0   0   3   3   3   3   0   3   0
 21      1     8       0   5   0   5   5   0   5   0
                       0   7   0   7   7   0   7   0
                       0   7   0   7   7   0   7   0
                       0   6   0   6   6   0   6   0
 22      1     4       0   0   4   0
                       0   0   8   0
                       0   0   8   0
                       0   0   5   0
 23      1    10       5   5   0   5   0   5   5   0   0   5
                       9   9   0   9   0   9   9   0   0   9
                       3   3   0   3   0   3   3   0   0   3
                       3   3   0   3   0   3   3   0   0   3
 24      1     2       0   7
                       0   7
                       0  10
                       0  10
 25      1     5       8   0   8   0   8
                       2   0   2   0   2
                       5   0   5   0   5
                       5   0   5   0   5
 26      1    10       4   0   4   0   4   0   4   4   4   4
                       6   0   6   0   6   0   6   6   6   6
                       4   0   4   0   4   0   4   4   4   4
                       5   0   5   0   5   0   5   5   5   5
 27      1     9       6   0   6   0   6   0   6   6   6
                       9   0   9   0   9   0   9   9   9
                       7   0   7   0   7   0   7   7   7
                       4   0   4   0   4   0   4   4   4
 28      1     6       1   1   1   1   1   1
                       1   1   1   1   1   1
                      10  10  10  10  10  10
                       8   8   8   8   8   8
 29      1     7       0   5   5   5   5   0   5
                       0   8   8   8   8   0   8
                       0   3   3   3   3   0   3
                       0   8   8   8   8   0   8
 30      1     4       7   7   7   7
                       7   7   7   7
                       1   1   1   1
                       4   4   4   4
 31      1     6       9   9   9   9   0   9
                       1   1   1   1   0   1
                       5   5   5   5   0   5
                      10  10  10  10   0  10
 32      1     0    
************************************************************************
RESOURCEAVAILABILITIES:
  R 1  R 2  R 3  R 4

  24  24   0  24  24  24  24  24   0  24  24  24  24  24  24  24  24   0  24  24  24  24  24  24   0  24  24  24  24  24  24  24  24  24  24  24  24  24  24  24  24  24  24  24  24  24  24  24  24  24  24   0  24  24  24  24  24  24  24   0   0  24  24  24  24  24   0  24  24  24  24  24  24   0  24  24  24  24  24  24  24   0  24   0  24   0  24  24  24  24   0  24  24  24  24  24  24   0  24  24  24  24  24   0  24   0  24   0  24  24  24  24  24  24  24  24  24  24  24  24  24  24   0  24  24  24   0   0   0  24  24  24  24  24  24  24  24  24   0  24   0  24  24   0  24  24  24  24  24  24  24  24  24  24  24  24  24

  32  32   0  32  32  32  32  32   0  32  32  32  32  32  32  32  32   0  32  32  32  32  32  32   0  32  32  32  32  32  32  32  32  32  32  32  32  32  32  32  32  32  32  32  32  32  32  32  32  32  32   0  32  32  32  32  32  32  32   0   0  32  32  32  32  32   0  32  32  32  32  32  32   0  32  32  32  32  32  32  32   0  32   0  32   0  32  32  32  32   0  32  32  32  32  32  32   0  32  32  32  32  32   0  32   0  32   0  32  32  32  32  32  32  32  32  32  32  32  32  32  32   0  32  32  32   0   0   0  32  32  32  32  32  32  32  32  32   0  32   0  32  32   0  32  32  32  32  32  32  32  32  32  32  32  32  32

  32  32   0  32  32  32  32  32   0  32  32  32  32  32  32  32  32   0  32  32  32  32  32  32   0  32  32  32  32  32  32  32  32  32  32  32  32  32  32  32  32  32  32  32  32  32  32  32  32  32  32   0  32  32  32  32  32  32  32   0   0  32  32  32  32  32   0  32  32  32  32  32  32   0  32  32  32  32  32  32  32   0  32   0  32   0  32  32  32  32   0  32  32  32  32  32  32   0  32  32  32  32  32   0  32   0  32   0  32  32  32  32  32  32  32  32  32  32  32  32  32  32   0  32  32  32   0   0   0  32  32  32  32  32  32  32  32  32   0  32   0  32  32   0  32  32  32  32  32  32  32  32  32  32  32  32  32

  23  23   0  23  23  23  23  23   0  23  23  23  23  23  23  23  23   0  23  23  23  23  23  23   0  23  23  23  23  23  23  23  23  23  23  23  23  23  23  23  23  23  23  23  23  23  23  23  23  23  23   0  23  23  23  23  23  23  23   0   0  23  23  23  23  23   0  23  23  23  23  23  23   0  23  23  23  23  23  23  23   0  23   0  23   0  23  23  23  23   0  23  23  23  23  23  23   0  23  23  23  23  23   0  23   0  23   0  23  23  23  23  23  23  23  23  23  23  23  23  23  23   0  23  23  23   0   0   0  23  23  23  23  23  23  23  23  23   0  23   0  23  23   0  23  23  23  23  23  23  23  23  23  23  23  23  23

************************************************************************
